0 1
0 2
0 3
0 4
0 8
0 9
0 10
0 11
0 12
0 13
0 14
0 15
0 16
0 17
0 23
0 29
0 41
0 44
0 46
0 50
0 53
0 60
0 62
1 2
1 4
1 7
1 8
1 10
1 11
1 12
1 14
1 17
1 33
1 19
1 25
1 31
1 37
1 47
1 48
1 50
1 54
1 55
1 42
2 4
2 5
2 7
2 9
2 11
2 12
2 13
2 14
2 15
2 16
2 17
2 25
2 27
2 39
2 42
2 45
2 49
2 60
3 4
3 5
3 6
3 7
3 8
3 10
3 11
3 12
3 14
3 15
3 17
3 33
3 18
3 19
3 29
3 36
3 39
3 40
3 48
3 57
3 58
3 59
3 62
3 63
4 5
4 9
4 10
4 11
4 12
4 13
4 16
4 18
4 20
4 26
4 34
4 41
4 46
4 48
4 51
4 60
4 62
4 7
4 47
5 6
5 8
5 9
5 10
5 11
5 12
5 13
5 15
5 16
5 18
5 19
5 21
5 24
5 25
5 26
5 38
5 44
5 46
5 55
5 61
5 62
5 52
5 63
5 45
6 7
6 8
6 9
6 10
6 11
6 13
6 14
6 15
6 17
6 32
6 25
6 28
6 31
6 42
6 46
6 47
6 48
6 64
6 50
6 51
6 58
6 54
7 10
7 13
7 14
7 15
7 16
7 17
7 18
7 20
7 22
7 23
7 44
7 50
7 61
7 63
8 9
8 12
8 13
8 14
8 17
8 32
8 20
8 24
8 25
8 30
8 35
8 41
8 42
8 43
8 44
8 49
8 64
8 54
8 57
8 50
8 48
9 10
9 11
9 12
9 14
9 16
9 17
9 20
9 23
9 26
9 31
9 42
9 43
9 45
9 48
9 49
9 51
9 52
9 53
9 54
9 55
9 56
10 11
10 12
10 16
10 17
10 20
10 21
10 24
10 25
10 28
10 35
10 58
10 60
10 41
11 14
11 15
11 16
11 23
11 24
11 25
11 26
11 27
11 28
11 41
11 42
11 48
11 50
11 51
11 52
11 53
11 54
11 60
11 62
12 14
12 15
12 16
12 17
12 19
12 22
12 28
12 34
12 35
12 44
12 57
12 58
12 59
13 15
13 16
13 17
13 32
13 26
13 30
13 31
13 38
13 49
13 51
13 52
13 56
13 62
13 33
14 16
14 17
14 20
14 21
14 24
14 27
14 28
14 29
14 36
14 42
14 45
14 47
14 64
14 56
14 57
14 58
15 17
15 32
15 18
15 25
15 30
15 31
15 39
15 42
15 48
15 58
16 17
16 33
16 20
16 22
16 36
16 37
16 38
16 49
16 51
16 56
16 57
16 58
16 45
16 61
17 32
17 18
17 21
17 22
17 29
17 30
17 37
17 43
17 64
17 51
17 56
17 57
17 60
17 61
17 39
17 25
17 38
32 18
32 20
32 21
32 22
32 24
32 26
32 27
32 28
32 29
32 31
32 34
32 36
32 38
32 39
32 40
32 44
32 50
32 53
32 60
32 62
33 19
33 23
33 24
33 26
33 27
33 30
33 31
33 46
33 64
33 57
33 60
33 62
18 19
18 20
18 21
18 22
18 23
18 28
18 29
18 30
18 31
18 34
18 35
18 36
18 37
18 41
18 43
18 46
18 48
18 57
18 58
18 59
18 64
19 20
19 21
19 23
19 24
19 25
19 26
19 29
19 30
19 31
19 38
19 44
19 47
19 54
19 52
20 22
20 26
20 27
20 28
20 29
20 30
20 44
20 48
20 56
20 62
20 39
20 40
21 22
21 23
21 25
21 27
21 28
21 30
21 34
21 38
21 45
21 48
21 64
21 50
21 55
21 57
21 51
22 24
22 25
22 26
22 28
22 29
22 30
22 40
22 42
22 54
22 56
22 59
22 36
22 39
23 24
23 28
23 39
23 43
23 45
23 55
23 57
23 58
23 61
23 50
24 26
24 28
24 31
24 42
24 44
24 56
24 57
24 59
24 58
24 40
25 26
25 27
25 30
25 35
25 38
25 49
25 64
25 53
25 58
25 62
26 27
26 28
26 29
26 30
26 31
26 37
26 43
26 47
26 48
26 52
26 53
26 54
26 51
26 60
26 55
26 41
26 45
27 28
27 29
27 30
27 36
27 37
27 38
27 43
27 50
27 51
27 54
27 55
27 57
27 61
27 63
28 30
28 31
28 36
28 64
28 55
28 56
28 59
28 63
29 30
29 31
29 34
29 37
29 38
29 42
29 44
29 45
29 47
29 48
29 49
29 52
29 54
29 60
29 61
29 62
30 31
30 39
30 58
30 59
31 37
31 44
31 51
31 55
31 58
31 63
31 34
34 36
34 37
34 39
34 42
34 43
34 45
34 47
34 50
34 51
34 54
34 57
34 49
35 37
35 39
35 40
35 42
35 43
35 44
35 45
35 46
35 48
35 51
35 63
36 37
36 38
36 39
36 40
36 41
36 42
36 44
36 45
36 46
36 49
36 51
36 55
36 60
37 38
37 39
37 40
37 41
37 42
37 43
37 44
37 45
37 47
37 49
37 54
37 55
37 56
37 58
37 59
37 60
37 62
38 40
38 42
38 43
38 44
38 45
38 46
38 48
38 52
39 40
39 41
39 43
39 44
39 45
39 46
39 48
39 64
39 50
39 53
39 55
39 56
39 62
40 43
40 44
40 45
40 46
40 49
40 64
40 51
40 54
40 63
41 46
41 47
41 49
41 52
41 56
41 58
41 59
41 63
42 43
42 44
42 45
42 46
42 47
42 48
42 49
42 50
42 55
42 56
42 57
42 60
42 63
43 46
43 53
43 57
43 58
43 62
44 48
44 49
44 50
44 51
44 53
44 56
44 60
45 49
45 51
45 55
45 56
45 58
45 59
46 47
46 48
46 50
46 53
46 54
46 57
46 59
47 48
47 49
47 52
47 53
47 55
47 60
48 49
48 52
48 55
48 58
49 52
49 53
49 54
49 57
64 51
64 53
64 54
64 57
64 58
64 59
64 61
50 51
50 53
50 55
50 57
50 58
50 59
50 61
50 62
50 63
51 52
51 53
51 54
51 55
51 56
51 57
51 59
51 60
51 62
52 55
52 59
52 60
52 61
52 62
53 55
53 56
53 57
53 59
53 61
53 62
54 55
54 57
54 61
54 62
55 58
55 59
55 60
56 57
56 58
56 59
56 61
57 58
57 60
57 61
57 62
57 63
58 59
58 61
58 62
59 60
59 61
59 63
60 61
60 62
60 63
61 62
