0 1
0 2
0 3
0 4
0 5
0 6
0 7
0 8
0 9
0 10
0 11
0 12
0 13
0 14
0 15
0 16
0 17
0 18
0 19
0 20
0 21
0 22
0 23
0 24
0 25
0 26
0 27
0 28
0 29
0 30
0 31
0 32
0 33
0 34
0 35
0 36
0 37
0 38
0 39
0 40
0 41
0 42
0 43
0 44
0 45
0 46
0 47
0 48
0 49
0 50
0 51
0 52
0 53
0 54
0 55
0 56
0 57
0 58
0 59
0 60
0 61
0 62
0 63
0 64
0 65
0 66
0 67
0 68
0 69
0 70
0 71
0 72
0 73
0 74
0 75
0 76
0 77
0 78
0 79
0 80
0 81
0 82
0 83
0 84
0 85
0 86
0 87
0 88
0 89
0 90
0 91
0 92
0 93
0 94
0 95
0 96
0 97
0 98
0 99
0 100
0 101
0 102
0 103
0 104
0 105
0 106
0 107
0 108
0 109
0 110
0 111
0 112
0 113
0 114
0 115
0 116
0 117
0 118
0 119
0 120
0 121
0 122
0 123
0 124
0 125
0 126
0 127
0 128
0 129
0 130
0 131
0 132
0 133
0 134
0 135
0 136
0 137
0 138
0 139
0 140
0 141
0 142
0 143
0 144
0 145
0 146
0 147
0 148
0 149
0 150
0 151
0 152
0 153
0 154
0 155
0 156
0 157
0 158
0 159
0 160
0 161
0 162
0 163
0 164
0 165
0 166
0 167
0 168
0 169
0 170
0 171
0 172
0 173
0 174
0 175
0 176
0 177
0 178
0 179
0 180
0 181
0 182
0 183
0 184
0 185
0 186
0 187
0 188
0 189
0 190
0 191
0 192
0 193
0 194
0 195
0 196
0 197
0 198
0 199
0 200
0 201
0 202
0 203
0 204
0 205
0 206
0 207
0 208
0 209
0 210
0 211
0 212
0 213
0 214
0 215
0 216
0 217
0 218
0 219
0 220
0 221
0 222
0 223
0 224
0 225
0 226
0 227
0 228
0 229
0 230
0 231
0 232
0 233
0 234
0 235
0 236
0 237
0 238
0 239
0 240
0 241
0 242
0 243
0 244
0 245
0 246
0 247
0 248
0 249
0 250
0 251
0 252
0 253
0 254
0 255
0 256
0 257
0 258
0 259
0 260
0 261
0 262
0 263
0 264
0 265
0 266
0 267
0 268
0 269
0 270
0 271
0 272
0 273
0 274
0 275
0 276
0 277
0 278
0 279
0 280
0 281
0 282
0 283
0 284
0 285
0 286
0 287
0 288
0 289
0 290
0 291
0 292
0 293
0 294
0 295
0 296
0 297
0 298
0 299
1 48
1 53
1 54
1 73
1 88
1 92
1 119
1 126
1 133
1 194
1 236
1 280
1 299
2 20
2 115
2 116
2 149
2 226
3 9
3 25
3 26
3 67
3 72
3 85
3 122
3 142
3 170
3 188
3 200
3 228
3 274
3 280
3 283
4 78
4 152
4 181
4 195
4 218
4 273
4 275
5 87
5 122
5 156
5 158
5 169
5 180
5 187
5 204
5 213
5 235
6 89
6 95
6 147
6 219
7 22
7 31
7 38
7 65
7 87
7 103
7 129
7 136
7 168
7 213
7 246
7 291
8 91
8 110
8 193
8 201
8 245
8 259
8 264
9 21
9 25
9 26
9 30
9 56
9 66
9 67
9 69
9 72
9 75
9 79
9 85
9 105
9 113
9 119
9 122
9 128
9 133
9 134
9 141
9 142
9 148
9 156
9 161
9 169
9 170
9 176
9 185
9 186
9 188
9 199
9 200
9 203
9 224
9 231
9 232
9 252
9 258
9 271
9 272
9 276
9 277
9 280
9 285
9 291
9 295
9 297
10 67
10 142
10 169
10 200
10 277
10 285
10 291
13 21
13 26
13 56
13 59
13 65
13 67
13 82
13 98
13 109
13 118
13 119
13 148
13 172
13 188
13 199
13 211
13 223
13 236
13 238
13 239
13 252
13 261
13 265
13 271
13 277
14 20
14 28
14 41
14 115
14 116
14 144
14 149
14 151
14 214
14 226
16 29
16 82
16 118
16 172
16 261
17 19
17 41
17 111
17 115
17 116
17 137
17 140
17 144
17 214
19 41
19 89
19 112
19 115
19 138
19 174
19 175
19 214
19 227
19 289
19 293
20 41
20 44
20 111
20 115
20 149
20 162
20 214
20 226
21 25
21 26
21 31
21 39
21 40
21 55
21 56
21 66
21 67
21 88
21 98
21 104
21 105
21 108
21 109
21 119
21 121
21 122
21 123
21 127
21 134
21 136
21 142
21 159
21 161
21 165
21 169
21 170
21 184
21 186
21 188
21 197
21 200
21 203
21 212
21 223
21 232
21 235
21 236
21 239
21 248
21 251
21 252
21 271
21 272
21 274
21 277
21 280
21 281
21 284
21 297
22 87
22 158
22 168
22 185
22 277
23 51
23 61
23 83
23 99
23 116
23 124
23 144
23 155
23 175
23 190
23 227
23 230
23 237
23 240
23 245
23 267
24 53
24 57
24 80
24 92
24 94
24 101
24 180
24 187
24 194
24 242
24 249
24 266
24 299
25 26
25 31
25 39
25 40
25 51
25 56
25 65
25 67
25 69
25 72
25 73
25 76
25 79
25 83
25 84
25 88
25 94
25 98
25 103
25 104
25 105
25 113
25 119
25 122
25 130
25 141
25 148
25 158
25 169
25 170
25 176
25 185
25 186
25 188
25 199
25 200
25 203
25 221
25 224
25 231
25 232
25 236
25 237
25 239
25 246
25 252
25 257
25 270
25 271
25 272
25 276
25 277
25 280
25 283
25 285
25 288
25 290
25 291
25 297
26 40
26 55
26 56
26 62
26 66
26 67
26 69
26 72
26 79
26 98
26 104
26 109
26 113
26 118
26 119
26 122
26 123
26 128
26 133
26 134
26 141
26 142
26 158
26 161
26 169
26 170
26 172
26 176
26 185
26 186
26 188
26 199
26 200
26 203
26 212
26 223
26 224
26 232
26 236
26 239
26 248
26 252
26 257
26 265
26 271
26 276
26 277
26 280
26 285
26 291
26 295
26 297
26 298
27 54
27 119
28 41
28 115
28 116
28 140
28 144
28 149
28 151
28 226
29 40
29 82
29 106
29 118
29 172
29 203
29 211
29 231
29 247
29 252
30 48
30 56
30 73
30 178
30 188
30 200
30 213
30 224
30 236
30 271
31 51
31 67
31 83
31 84
31 109
31 122
31 129
31 142
31 168
31 200
31 237
31 252
31 277
31 280
31 291
32 93
32 137
32 167
33 42
34 173
35 143
36 108
36 127
36 135
36 184
36 197
36 251
36 281
36 284
38 117
38 141
38 178
38 248
39 69
39 105
39 119
39 121
39 141
39 161
39 165
39 200
39 257
39 277
39 280
40 56
40 67
40 72
40 77
40 113
40 132
40 133
40 141
40 142
40 158
40 169
40 172
40 199
40 200
40 203
40 212
40 213
40 224
40 231
40 232
40 239
40 257
40 258
40 265
40 271
40 272
40 274
40 277
40 280
40 298
41 44
41 93
41 111
41 115
41 116
41 137
41 140
41 144
41 151
41 214
41 226
41 230
41 243
44 111
45 67
45 104
45 122
45 132
45 142
45 186
45 200
45 221
46 143
46 175
46 177
46 278
48 53
48 54
48 57
48 73
48 80
48 88
48 119
48 126
48 130
48 180
48 199
48 203
48 271
48 299
49 192
49 241
49 255
50 109
50 113
50 119
50 146
50 148
50 203
50 277
51 83
51 84
51 237
52 192
53 54
53 88
53 92
53 94
53 101
53 130
53 146
53 180
53 191
53 194
53 196
53 204
53 213
53 242
53 248
53 249
53 254
53 260
53 266
53 299
54 119
55 56
55 67
55 104
55 122
55 123
55 170
55 185
55 186
55 200
55 203
55 239
55 252
55 261
55 277
56 59
56 60
56 62
56 63
56 66
56 67
56 72
56 75
56 82
56 88
56 98
56 103
56 104
56 109
56 113
56 118
56 119
56 122
56 128
56 132
56 134
56 136
56 141
56 142
56 161
56 169
56 170
56 172
56 185
56 186
56 188
56 199
56 200
56 203
56 207
56 211
56 212
56 213
56 221
56 222
56 223
56 231
56 232
56 238
56 239
56 252
56 261
56 265
56 271
56 272
56 276
56 277
56 285
56 290
56 291
56 297
56 298
57 80
57 92
57 108
57 184
57 204
57 213
57 242
57 249
57 277
58 107
58 171
58 269
59 82
59 98
59 118
59 172
59 186
59 203
59 211
59 238
59 239
59 250
59 252
59 261
59 268
59 271
60 158
60 239
60 285
60 291
61 193
62 67
62 96
62 98
62 122
62 130
62 133
62 141
62 142
62 161
62 170
62 186
62 199
62 200
62 223
62 224
62 236
62 239
62 261
62 276
63 261
63 271
64 100
64 119
64 150
64 171
64 189
64 217
65 82
65 118
65 203
65 252
65 261
65 297
66 67
66 113
66 122
66 134
66 142
66 239
66 252
67 69
67 72
67 75
67 79
67 82
67 98
67 104
67 109
67 113
67 118
67 119
67 122
67 123
67 128
67 134
67 136
67 141
67 142
67 156
67 158
67 161
67 169
67 170
67 185
67 186
67 188
67 196
67 199
67 200
67 203
67 212
67 213
67 223
67 224
67 236
67 239
67 248
67 252
67 261
67 265
67 271
67 272
67 277
67 280
67 285
67 290
67 297
68 99
68 143
68 175
68 177
68 225
68 227
68 263
68 296
69 105
69 121
69 236
70 230
71 230
72 113
72 132
72 141
72 165
72 172
72 199
72 200
72 212
72 232
72 239
72 252
72 271
72 272
72 291
72 298
73 88
73 126
73 130
73 299
75 85
75 170
75 188
75 200
75 258
75 272
75 274
76 270
77 117
77 231
77 294
78 181
78 195
78 218
78 273
78 275
79 119
79 185
79 188
79 200
79 252
79 271
79 272
80 88
80 92
80 94
80 101
80 173
80 180
80 187
80 194
80 204
80 213
80 242
80 249
80 266
80 299
81 269
81 286
82 84
82 98
82 118
82 119
82 121
82 123
82 148
82 158
82 169
82 170
82 172
82 199
82 203
82 211
82 222
82 231
82 238
82 252
82 261
82 268
82 271
83 84
83 237
84 224
84 236
84 237
84 265
84 276
85 156
85 170
85 176
85 188
85 258
85 271
85 272
85 274
86 175
86 177
86 225
86 227
86 278
87 136
87 161
87 213
87 246
87 291
88 106
88 126
88 130
88 164
88 178
88 186
88 236
88 242
89 95
89 147
89 219
90 179
91 110
91 193
91 201
91 245
91 259
91 264
92 94
92 101
92 180
92 187
92 194
92 196
92 204
92 242
92 249
92 254
92 266
92 299
93 111
93 137
93 167
94 101
94 180
94 187
94 194
94 204
94 242
94 249
94 254
94 266
94 299
95 147
96 133
96 190
96 213
96 224
96 274
97 182
97 230
98 103
98 104
98 109
98 113
98 118
98 119
98 122
98 123
98 128
98 141
98 148
98 170
98 172
98 186
98 199
98 200
98 203
98 211
98 223
98 238
98 239
98 252
98 258
98 261
98 265
98 271
98 272
98 276
98 277
98 280
98 285
98 291
99 102
99 131
99 143
99 175
99 177
99 225
99 227
99 263
99 278
99 296
100 119
100 150
100 163
100 189
100 217
100 269
101 180
101 187
101 194
101 204
101 242
101 249
101 254
101 266
101 299
102 175
102 227
102 263
102 296
103 136
103 169
103 172
103 185
103 200
103 211
103 252
103 271
103 285
104 109
104 113
104 122
104 123
104 128
104 142
104 169
104 186
104 188
104 200
104 203
104 212
104 239
104 252
104 271
104 277
104 295
105 119
105 148
105 236
105 257
105 272
105 277
105 280
106 169
106 231
106 238
107 171
108 127
108 159
108 184
108 197
108 251
108 272
108 281
108 284
109 118
109 119
109 122
109 142
109 148
109 158
109 169
109 186
109 200
109 203
109 229
109 239
109 252
109 271
109 277
109 285
109 295
109 297
110 259
110 264
111 137
111 214
111 279
112 174
113 119
113 121
113 122
113 132
113 134
113 142
113 148
113 158
113 165
113 169
113 172
113 186
113 188
113 199
113 200
113 203
113 239
113 252
113 261
113 271
113 277
113 285
113 291
115 116
115 137
115 140
115 144
115 149
115 192
115 214
115 220
115 226
115 262
116 140
116 144
116 149
116 162
116 214
116 226
117 231
117 280
117 285
118 134
118 161
118 172
118 199
118 200
118 203
118 211
118 222
118 238
118 239
118 252
118 261
118 265
118 268
118 271
118 277
118 283
119 122
119 125
119 128
119 132
119 146
119 148
119 150
119 163
119 170
119 171
119 176
119 185
119 188
119 189
119 199
119 200
119 203
119 208
119 217
119 229
119 239
119 248
119 252
119 261
119 269
119 271
119 277
119 280
119 285
119 297
120 136
120 247
120 277
121 165
121 169
121 206
121 236
121 280
122 123
122 128
122 136
122 141
122 142
122 156
122 161
122 169
122 170
122 176
122 186
122 188
122 200
122 203
122 213
122 224
122 232
122 235
122 236
122 239
122 248
122 251
122 252
122 261
122 271
122 272
122 274
122 276
122 277
122 280
122 281
122 284
122 285
122 297
123 142
123 186
123 200
123 239
123 252
123 261
124 157
124 170
125 136
125 169
126 260
127 135
127 139
127 159
127 184
127 197
127 251
127 272
127 281
127 284
128 150
128 169
128 170
128 172
128 176
128 186
128 199
128 203
128 211
128 213
128 223
128 248
128 252
128 265
128 271
129 168
129 291
130 191
130 204
130 213
130 257
130 277
131 143
131 177
131 225
131 227
131 278
132 134
132 158
132 242
132 277
133 141
133 183
133 188
133 224
133 232
133 236
133 271
133 276
133 280
134 142
134 199
134 203
134 238
134 248
134 252
134 277
135 184
135 197
135 251
135 281
135 284
136 146
136 156
136 169
136 213
136 246
136 285
137 140
137 167
137 214
137 243
137 289
139 159
139 184
139 197
139 251
139 281
139 284
140 144
140 214
141 172
141 199
141 224
141 236
141 239
141 257
141 258
141 271
141 272
141 276
141 280
141 291
142 158
142 161
142 169
142 170
142 186
142 188
142 200
142 203
142 236
142 239
142 252
142 271
142 277
142 280
142 285
142 297
143 175
143 177
143 225
143 227
143 278
144 149
144 151
144 226
145 179
146 148
146 285
147 219
148 176
148 185
148 224
148 229
148 261
148 271
148 272
149 162
149 226
150 163
150 171
150 189
150 217
152 181
152 275
153 280
154 219
155 157
156 188
156 235
156 258
156 272
156 295
158 168
158 232
158 242
158 248
158 291
159 172
159 184
159 197
159 272
159 277
159 281
159 284
160 260
161 199
161 203
161 213
161 252
161 258
161 271
161 277
163 173
163 249
164 285
165 169
165 188
165 200
166 173
166 198
166 202
167 243
168 277
168 291
169 185
169 236
169 239
169 248
169 252
169 257
169 271
169 277
169 280
169 291
170 176
170 185
170 186
170 188
170 200
170 203
170 211
170 223
170 239
170 250
170 252
170 260
170 268
170 271
170 274
170 277
170 285
170 290
171 189
171 217
172 199
172 203
172 211
172 212
172 223
172 231
172 232
172 238
172 239
172 252
172 261
172 265
172 268
172 271
172 277
172 298
173 202
174 293
175 177
175 225
175 227
175 263
175 277
175 278
175 296
176 188
176 239
176 271
176 290
177 225
177 227
177 278
178 186
178 206
178 213
178 231
178 272
180 187
180 194
180 196
180 204
180 242
180 249
180 254
180 266
180 299
181 195
181 218
181 273
181 275
182 253
184 197
184 251
184 272
184 281
184 284
185 188
185 200
185 271
185 272
185 274
185 280
185 285
185 290
185 297
186 188
186 199
186 200
186 203
186 213
186 221
186 222
186 223
186 236
186 239
186 252
186 271
186 272
186 277
186 285
187 194
187 242
187 249
187 254
187 266
187 299
188 200
188 208
188 223
188 224
188 239
188 252
188 258
188 271
188 272
188 274
188 277
188 280
188 285
188 290
188 291
188 297
189 217
190 229
192 205
193 259
194 196
194 204
194 242
194 249
194 254
194 266
194 299
195 218
195 273
195 275
196 204
196 249
196 254
196 266
196 285
197 251
197 272
197 281
197 284
199 200
199 203
199 211
199 212
199 222
199 223
199 231
199 232
199 238
199 239
199 252
199 261
199 265
199 271
199 288
199 291
199 298
200 203
200 223
200 224
200 232
200 236
200 239
200 248
200 252
200 271
200 274
200 276
200 277
200 280
200 285
200 297
201 259
203 211
203 223
203 238
203 239
203 261
203 265
203 268
203 270
203 271
203 272
203 277
203 285
203 297
204 213
204 242
204 249
204 254
204 266
204 277
206 260
208 277
208 285
208 291
211 222
211 223
211 238
211 239
211 261
211 265
211 268
211 271
211 272
211 285
212 232
212 239
212 252
212 271
212 295
212 298
213 224
213 231
213 236
213 239
213 242
213 246
213 249
213 272
213 277
213 285
213 291
214 230
214 289
216 243
218 273
218 275
220 262
221 285
222 238
222 240
223 239
223 246
223 252
223 261
223 265
223 271
224 232
224 236
224 261
224 271
224 276
224 291
225 227
225 278
227 263
227 278
227 296
228 283
230 253
231 232
231 239
231 280
231 291
232 239
232 271
232 276
232 280
232 285
232 291
232 298
233 256
234 239
236 248
236 252
236 257
236 271
236 272
236 276
236 280
236 297
238 239
238 252
238 261
238 265
238 271
239 252
239 261
239 265
239 271
239 272
239 276
239 277
239 280
239 285
239 295
242 249
242 254
242 266
242 299
244 282
245 259
246 285
248 252
248 265
248 277
248 291
249 254
249 266
249 299
250 252
251 281
251 284
252 261
252 265
252 271
252 272
252 277
252 280
252 285
252 291
252 297
254 266
254 299
257 258
257 272
257 280
257 295
258 272
258 291
258 295
259 264
261 265
261 268
261 271
261 285
261 297
263 296
265 271
265 298
268 271
271 272
271 276
271 277
271 280
271 285
271 290
271 291
271 297
271 298
272 277
272 280
272 281
272 285
272 291
272 297
273 275
277 280
277 285
277 290
277 291
277 294
280 290
280 291
280 297
281 284
